p td 24 46
1 5
1 6
2 6
2 7
3 7
3 8
4 8
4 9
5 10
5 16
5 11
6 11
6 17
6 12
7 12
7 18
7 13
8 13
9 19
8 14
9 14
9 20
9 15
10 16
11 16
11 17
12 17
12 18
13 18
13 19
14 19
14 20
15 20
16 21
17 21
17 22
18 22
18 23
19 23
19 24
20 24
10 11
11 12
12 13
13 14
14 15
